\* Problem: Unknown *\

Minimize
 obj: + 9900 x_1 + 7800 x_2 + 6700 x_3 + 5600 x_4 + 4600 x_5 + 3300 x_6
 + 2100 x_7 + 2100 x_8 + 9900 x_9 + 7800 x_10 + 6700 x_11 + 5600 x_12
 + 4600 x_13 + 3300 x_14 + 2100 x_15 + 2100 x_16 - 999000 x_17
 - 1100 x_18 - 2200 x_19 - 3300 x_20 - 3500 x_21 - 4800 x_22 - 5200 x_23
 + 5600 x_24 - 10000 x_25 - 10000 x_26 - 2100 x_27 - 3200 x_28
 - 4300 x_29 - 4500 x_30 - 5800 x_31 - 6200 x_32 + 4600 x_33 - 2100 x_34
 - 3200 x_35 - 3400 x_36 - 4700 x_37 - 5100 x_38 + 5700 x_39 - 2100 x_40
 - 3400 x_41 - 4400 x_42 - 5500 x_43 - 5500 x_44 - 2200 x_45 - 3200 x_46
 - 4300 x_47 - 4300 x_48 - 2100 x_49 - 3100 x_50 - 4200 x_51 - 4200 x_52
 - 2300 x_53 - 3300 x_54 - 4400 x_55 - 4400 x_56 - 2200 x_57 - 3500 x_58
 - 4500 x_59 - 5600 x_60 - 5600 x_61 - 2100 x_62 - 3200 x_63 - 4200 x_64
 - 5500 x_65 - 6700 x_66 - 6700 x_67 - 2200 x_68 - 3300 x_69 - 4400 x_70
 - 5400 x_71 - 6700 x_72 - 7900 x_73 - 7900 x_74 - 2200 x_75 - 3300 x_76
 - 4400 x_77 - 5400 x_78 - 6700 x_79 - 7900 x_80 - 7900 x_81 - 2200 x_82
 - 3500 x_83 - 4500 x_84 - 5600 x_85 - 5600 x_86 - 2200 x_87 - 3400 x_88
 - 3400 x_89 - 2100 x_90 - 3100 x_91 - 4400 x_92 - 5600 x_93 - 5600 x_94
 - 2300 x_95 - 3500 x_96 - 3500 x_97 - 2100 x_98 - 3300 x_99
 - 3300 x_100 - 2200 x_101 - 2200 x_102 - 2300 x_103 - 3400 x_104
 - 4500 x_105 - 5500 x_106 - 6800 x_107 - 8000 x_108 - 8000 x_109
 - 1400 x_110 + 9400 x_111 - 1200 x_112 + 9600 x_113 - 1200 x_114
 - 2500 x_115 - 2900 x_116 + 7900 x_117 + 9800 x_118 - 1200 x_119
 - 2500 x_120 - 2900 x_121 + 7900 x_122 - 2100 x_123 - 2300 x_124
 - 3600 x_125 - 4000 x_126 + 6800 x_127 - 2300 x_128 - 2700 x_129
 + 8100 x_130 - 2100 x_131 - 2500 x_132 + 8300 x_133 - 1300 x_134
 + 9500 x_135 + 9900 x_136 - 2200 x_137 - 2600 x_138 + 8200 x_139

Subject To
 r_1: + x_82 + x_57 + x_40 - ~r_1 = 0
 r_2: + x_84 + x_59 + x_54 + x_50 + x_46 + x_42 - ~r_2 = 0
 r_3: + x_106 + x_91 + x_78 + x_71 + x_64 + x_13 + x_5 - ~r_3 = 0
 r_4: + x_107 + x_98 + x_95 + x_92 + x_87 + x_79 + x_72 + x_65 + x_14
 + x_6 - ~r_4 = 0
 r_5: + x_108 + x_101 + x_99 + x_96 + x_93 + x_88 + x_85 + x_80 + x_73
 + x_66 + x_60 + x_55 + x_51 + x_47 + x_43 + x_15 + x_7 - ~r_5 = 0
 r_6: + x_27 + x_18 - ~r_6 = 0
 r_7: + x_34 + x_28 + x_19 - ~r_7 = 0
 r_8: + x_123 + x_35 + x_29 + x_20 - ~r_8 = 0
 r_9: + x_124 + x_119 + x_114 + x_36 + x_30 + x_21 - ~r_9 = 0
 r_10: + x_137 + x_131 + x_128 + x_125 + x_120 + x_115 + x_37 + x_31
 + x_22 - ~r_10 = 0
 r_11: + x_138 + x_134 + x_132 + x_129 + x_126 + x_121 + x_116 + x_112
 + x_110 + x_38 + x_32 + x_23 - ~r_11 = 0
 r_12: + x_104 + x_76 + x_69 + x_62 + x_11 + x_3 - ~r_12 = 0
 r_13: + x_103 + x_75 + x_68 + x_10 + x_2 - ~r_13 = 0
 r_14: + x_83 + x_58 + x_53 + x_49 + x_45 + x_41 - ~r_14 = 0
 r_15: + x_105 + x_90 + x_77 + x_70 + x_63 + x_12 + x_4 - ~r_15 = 0
 r_16: + x_8 + x_7 + x_6 + x_5 + x_4 + x_3 + x_2 + x_1 >= 0
 r_17: + x_25 >= 0
 r_18: + x_16 + x_15 + x_14 + x_13 + x_12 + x_11 + x_10 + x_9 >= 0
 r_19: + x_26 >= 0
 r_20: + x_24 + x_23 + x_22 + x_21 + x_20 + x_19 + x_18 + x_17 >= 0
 r_21: + x_109 + x_102 + x_100 + x_97 + x_94 + x_89 + x_86 + x_81 + x_74
 + x_67 + x_61 + x_56 + x_52 + x_48 + x_44 + x_16 + x_8 >= 0
 r_22: + x_25 = 0
 r_23: + x_26 = 0
 r_24: + x_139 + x_138 + x_133 + x_132 + x_130 + x_129 + x_127 + x_126
 + x_122 + x_121 + x_117 + x_116 + x_111 + x_110 + x_39 + x_38 + x_33
 + x_32 + x_24 + x_23 >= 0
 r_25: + x_139 + x_138 + x_135 + x_134 + x_133 + x_132 + x_130 + x_129
 + x_127 + x_126 + x_122 + x_121 + x_117 + x_116 + x_113 + x_112 + x_111
 + x_110 + x_39 + x_38 + x_33 + x_32 + x_24 + x_23 >= 0
 r_26: + x_127 + x_126 + x_125 + x_124 + x_122 + x_121 + x_120 + x_119
 + x_117 + x_116 + x_115 + x_114 + x_39 + x_38 + x_37 + x_36 + x_33
 + x_32 + x_31 + x_30 + x_24 + x_23 + x_22 + x_21 >= 0
 r_27: + x_139 + x_135 + x_133 + x_130 + x_127 + x_122 + x_118 + x_117
 + x_113 + x_111 + x_39 + x_33 + x_24 >= 0
 r_28: + x_127 + x_126 + x_125 + x_124 + x_123 + x_39 + x_38 + x_37
 + x_36 + x_35 + x_33 + x_32 + x_31 + x_30 + x_29 + x_24 + x_23 + x_22
 + x_21 + x_20 >= 0
 r_29: + x_130 + x_129 + x_128 + x_127 + x_126 + x_125 + x_122 + x_121
 + x_120 + x_117 + x_116 + x_115 + x_39 + x_38 + x_37 + x_33 + x_32
 + x_31 + x_24 + x_23 + x_22 >= 0
 r_30: + x_139 + x_138 + x_137 + x_133 + x_132 + x_131 + x_130 + x_129
 + x_128 + x_127 + x_126 + x_125 + x_122 + x_121 + x_120 + x_117 + x_116
 + x_115 + x_39 + x_38 + x_37 + x_33 + x_32 + x_31 + x_24 + x_23 + x_22
 >= 0
 r_31: + x_139 + x_138 + x_135 + x_134 + x_133 + x_132 + x_130 + x_129
 + x_127 + x_126 + x_122 + x_121 + x_117 + x_116 + x_111 + x_110 + x_39
 + x_38 + x_33 + x_32 + x_24 + x_23 >= 0
 r_32: + x_139 + x_136 + x_135 + x_133 + x_130 + x_127 + x_122 + x_118
 + x_117 + x_113 + x_111 + x_39 + x_33 + x_24 >= 0
 r_33: + x_139 + x_138 + x_137 + x_130 + x_129 + x_128 + x_127 + x_126
 + x_125 + x_122 + x_121 + x_120 + x_117 + x_116 + x_115 + x_39 + x_38
 + x_37 + x_33 + x_32 + x_31 + x_24 + x_23 + x_22 >= 0
 r_34: + x_33 + x_32 + x_31 + x_30 + x_29 + x_28 + x_27 = 27583.9776
 r_35: + x_39 + x_38 + x_37 + x_36 + x_35 + x_34 = 29091.0528
 r_36: + x_1 - ~r_36 = 0
 r_37: + x_9 - ~r_37 = 0
 r_38: + x_17 - ~r_38 = 0
 r_39: + x_44 + x_43 + x_42 + x_41 + x_40 = 16169.5008
 r_40: + x_48 + x_47 + x_46 + x_45 = 40423.536
 r_41: + x_52 + x_51 + x_50 + x_49 = 40423.536
 r_42: + x_56 + x_55 + x_54 + x_53 = 64677.744
 r_43: + x_61 + x_60 + x_59 + x_58 + x_57 = 29358.5472
 r_44: + x_67 + x_66 + x_65 + x_64 + x_63 + x_62 = 61603.5456
 r_45: + x_74 + x_73 + x_72 + x_71 + x_70 + x_69 + x_68 = 5358.67488
 r_46: + x_81 + x_80 + x_79 + x_78 + x_77 + x_76 + x_75 = 13263.5232
 r_47: + x_86 + x_85 + x_84 + x_83 + x_82 = 13314.8448
 r_48: + x_89 + x_88 + x_87 = 16714.5984
 r_49: + x_94 + x_93 + x_92 + x_91 + x_90 = 33050.9376
 r_50: + x_97 + x_96 + x_95 = 13220.4096
 r_51: + x_100 + x_99 + x_98 = 13220.4096
 r_52: + x_102 + x_101 = 6610.22208
 r_53: + x_109 + x_108 + x_107 + x_106 + x_105 + x_104 + x_103
 = 43861.9104
 r_54: + x_111 + x_110 = 4671.06048
 r_55: + x_113 + x_112 = 4671.06048
 r_56: + x_117 + x_116 + x_115 + x_114 = 8315.29152
 r_57: + x_118 = 26587.44
 r_58: + x_122 + x_121 + x_120 + x_119 = 17781.8112
 r_59: + x_127 + x_126 + x_125 + x_124 + x_123 = 10068.192
 r_60: + x_130 + x_129 + x_128 = 8242.83648
 r_61: + x_133 + x_132 + x_131 = 3794.54976
 r_62: + x_135 + x_134 = 17386.0128
 r_63: + x_136 = 14683.7664
 r_64: + x_139 + x_138 + x_137 = 8058.70944
 r_65: + x_109 + x_108 + x_107 + x_106 + x_105 + x_104 + x_103 + x_81
 + x_80 + x_79 + x_78 + x_77 + x_76 + x_75 + x_74 + x_73 + x_72 + x_71
 + x_70 + x_69 + x_68 + x_16 + x_15 + x_14 + x_13 + x_12 + x_11 + x_10
 + x_8 + x_7 + x_6 + x_5 + x_4 + x_3 + x_2 >= 0
 r_66: + x_109 + x_108 + x_102 + x_101 + x_100 + x_99 + x_97 + x_96
 + x_94 + x_93 + x_89 + x_88 + x_86 + x_85 + x_81 + x_80 + x_74 + x_73
 + x_67 + x_66 + x_61 + x_60 + x_56 + x_55 + x_52 + x_51 + x_48 + x_47
 + x_44 + x_43 + x_16 + x_15 + x_8 + x_7 >= 0
 r_67: + x_139 + x_136 + x_135 + x_133 + x_130 + x_127 + x_122 + x_118
 + x_117 + x_113 + x_111 + x_39 + x_33 + x_24 - ~r_67 = 0
 r_68: + x_39 + x_38 + x_37 + x_36 + x_35 + x_34 + x_33 + x_32 + x_31
 + x_30 + x_29 + x_28 + x_24 + x_23 + x_22 + x_21 + x_20 + x_19 >= 0
 r_69: + x_86 + x_85 + x_84 + x_83 + x_82 + x_61 + x_60 + x_59 + x_58
 + x_57 + x_44 + x_43 + x_42 + x_41 + x_40 >= 0
 r_70: + x_86 + x_85 + x_84 + x_83 + x_61 + x_60 + x_59 + x_58 + x_56
 + x_55 + x_54 + x_53 + x_48 + x_47 + x_46 + x_45 + x_44 + x_43 + x_42
 + x_41 >= 0
 r_71: + x_86 + x_85 + x_84 + x_83 + x_61 + x_60 + x_59 + x_58 + x_56
 + x_55 + x_54 + x_53 + x_52 + x_51 + x_50 + x_49 + x_48 + x_47 + x_46
 + x_45 + x_44 + x_43 + x_42 + x_41 >= 0
 r_72: + x_86 + x_85 + x_84 + x_83 + x_61 + x_60 + x_59 + x_58 + x_56
 + x_55 + x_54 + x_53 + x_44 + x_43 + x_42 + x_41 >= 0
 r_73: + x_86 + x_85 + x_84 + x_83 + x_82 + x_61 + x_60 + x_59 + x_58
 + x_57 >= 0
 r_74: + x_109 + x_108 + x_107 + x_106 + x_105 + x_104 + x_81 + x_80
 + x_79 + x_78 + x_77 + x_76 + x_74 + x_73 + x_72 + x_71 + x_70 + x_69
 + x_67 + x_66 + x_65 + x_64 + x_63 + x_62 + x_16 + x_15 + x_14 + x_13
 + x_12 + x_11 + x_8 + x_7 + x_6 + x_5 + x_4 + x_3 >= 0
 r_75: + x_109 + x_108 + x_107 + x_106 + x_105 + x_104 + x_103 >= 0
 r_76: + x_109 + x_108 + x_107 + x_97 + x_96 + x_95 + x_94 + x_93 + x_92
 + x_89 + x_88 + x_87 + x_81 + x_80 + x_79 + x_74 + x_73 + x_72 + x_67
 + x_66 + x_65 + x_16 + x_15 + x_14 + x_8 + x_7 + x_6 >= 0
 r_77: + x_109 + x_108 + x_107 + x_106 + x_105 + x_94 + x_93 + x_92
 + x_91 + x_90 + x_81 + x_80 + x_79 + x_78 + x_77 + x_74 + x_73 + x_72
 + x_71 + x_70 + x_67 + x_66 + x_65 + x_64 + x_63 + x_16 + x_15 + x_14
 + x_13 + x_12 + x_8 + x_7 + x_6 + x_5 + x_4 >= 0
 r_78: + x_109 + x_108 + x_107 + x_97 + x_96 + x_95 + x_94 + x_93 + x_92
 + x_81 + x_80 + x_79 + x_74 + x_73 + x_72 + x_67 + x_66 + x_65 + x_16
 + x_15 + x_14 + x_8 + x_7 + x_6 >= 0
 r_79: + x_109 + x_108 + x_107 + x_100 + x_99 + x_98 + x_97 + x_96
 + x_95 + x_94 + x_93 + x_92 + x_89 + x_88 + x_87 + x_81 + x_80 + x_79
 + x_74 + x_73 + x_72 + x_67 + x_66 + x_65 + x_16 + x_15 + x_14 + x_8
 + x_7 + x_6 >= 0
 r_80: + x_109 + x_108 + x_102 + x_101 + x_100 + x_99 + x_97 + x_96
 + x_94 + x_93 + x_89 + x_88 + x_81 + x_80 + x_74 + x_73 + x_67 + x_66
 + x_16 + x_15 + x_8 + x_7 >= 0
 r_81: + x_86 + x_85 + x_84 + x_83 + x_82 + x_61 + x_60 + x_59 + x_58
 + x_57 + x_44 + x_43 + x_42 + x_41 + x_40 >= 0
 r_82: + x_86 + x_85 + x_84 + x_61 + x_60 + x_59 + x_56 + x_55 + x_54
 + x_52 + x_51 + x_50 + x_48 + x_47 + x_46 + x_44 + x_43 + x_42 >= 0
 r_83: + x_109 + x_108 + x_107 + x_106 + x_94 + x_93 + x_92 + x_91
 + x_81 + x_80 + x_79 + x_78 + x_74 + x_73 + x_72 + x_71 + x_67 + x_66
 + x_65 + x_64 + x_16 + x_15 + x_14 + x_13 + x_8 + x_7 + x_6 + x_5 >= 0
 r_84: + x_109 + x_108 + x_107 + x_100 + x_99 + x_98 + x_97 + x_96
 + x_95 + x_94 + x_93 + x_92 + x_89 + x_88 + x_87 + x_81 + x_80 + x_79
 + x_74 + x_73 + x_72 + x_67 + x_66 + x_65 + x_16 + x_15 + x_14 + x_8
 + x_7 + x_6 >= 0
 r_85: + x_109 + x_108 + x_102 + x_101 + x_100 + x_99 + x_97 + x_96
 + x_94 + x_93 + x_89 + x_88 + x_86 + x_85 + x_81 + x_80 + x_74 + x_73
 + x_67 + x_66 + x_61 + x_60 + x_56 + x_55 + x_52 + x_51 + x_48 + x_47
 + x_44 + x_43 + x_16 + x_15 + x_8 + x_7 >= 0
 r_86: + x_33 + x_32 + x_31 + x_30 + x_29 + x_28 + x_27 + x_24 + x_23
 + x_22 + x_21 + x_20 + x_19 + x_18 >= 0
 r_87: + x_39 + x_38 + x_37 + x_36 + x_35 + x_34 + x_33 + x_32 + x_31
 + x_30 + x_29 + x_28 + x_24 + x_23 + x_22 + x_21 + x_20 + x_19 >= 0
 r_88: + x_127 + x_126 + x_125 + x_124 + x_123 + x_39 + x_38 + x_37
 + x_36 + x_35 + x_33 + x_32 + x_31 + x_30 + x_29 + x_24 + x_23 + x_22
 + x_21 + x_20 >= 0
 r_89: + x_127 + x_126 + x_125 + x_124 + x_122 + x_121 + x_120 + x_119
 + x_117 + x_116 + x_115 + x_114 + x_39 + x_38 + x_37 + x_36 + x_33
 + x_32 + x_31 + x_30 + x_24 + x_23 + x_22 + x_21 >= 0
 r_90: + x_139 + x_138 + x_137 + x_133 + x_132 + x_131 + x_130 + x_129
 + x_128 + x_127 + x_126 + x_125 + x_122 + x_121 + x_120 + x_117 + x_116
 + x_115 + x_39 + x_38 + x_37 + x_33 + x_32 + x_31 + x_24 + x_23 + x_22
 >= 0
 r_91: + x_139 + x_138 + x_135 + x_134 + x_133 + x_132 + x_130 + x_129
 + x_127 + x_126 + x_122 + x_121 + x_117 + x_116 + x_113 + x_112 + x_111
 + x_110 + x_39 + x_38 + x_33 + x_32 + x_24 + x_23 >= 0
 r_92: + x_109 + x_108 + x_107 + x_106 + x_105 + x_104 + x_81 + x_80
 + x_79 + x_78 + x_77 + x_76 + x_74 + x_73 + x_72 + x_71 + x_70 + x_69
 + x_67 + x_66 + x_65 + x_64 + x_63 + x_62 + x_16 + x_15 + x_14 + x_13
 + x_12 + x_11 + x_8 + x_7 + x_6 + x_5 + x_4 + x_3 >= 0
 r_93: + x_109 + x_108 + x_107 + x_106 + x_105 + x_104 + x_103 + x_81
 + x_80 + x_79 + x_78 + x_77 + x_76 + x_75 + x_74 + x_73 + x_72 + x_71
 + x_70 + x_69 + x_68 + x_16 + x_15 + x_14 + x_13 + x_12 + x_11 + x_10
 + x_8 + x_7 + x_6 + x_5 + x_4 + x_3 + x_2 >= 0
 r_94: + x_109 + x_108 + x_107 + x_106 + x_105 + x_94 + x_93 + x_92
 + x_91 + x_90 + x_81 + x_80 + x_79 + x_78 + x_77 + x_74 + x_73 + x_72
 + x_71 + x_70 + x_67 + x_66 + x_65 + x_64 + x_63 + x_16 + x_15 + x_14
 + x_13 + x_12 + x_8 + x_7 + x_6 + x_5 + x_4 >= 0
 r_95: + x_86 + x_85 + x_84 + x_83 + x_61 + x_60 + x_59 + x_58 + x_56
 + x_55 + x_54 + x_53 + x_52 + x_51 + x_50 + x_49 + x_48 + x_47 + x_46
 + x_45 + x_44 + x_43 + x_42 + x_41 >= 0
 r_96: + x_109 + x_108 + x_107 + x_106 + x_105 + x_104 + x_103 + x_74
 + x_73 + x_72 + x_71 + x_70 + x_69 + x_68 + x_8 + x_7 + x_6 + x_5 + x_4
 + x_3 + x_2 >= 0
 r_97: + x_81 + x_80 + x_79 + x_78 + x_77 + x_76 + x_75 + x_16 + x_15
 + x_14 + x_13 + x_12 + x_11 + x_10 >= 0
 r_98: + x_33 + x_32 + x_31 + x_30 + x_29 + x_28 + x_27 + x_24 + x_23
 + x_22 + x_21 + x_20 + x_19 + x_18 - ~r_98 = 0
 r_99: - x_8 - x_7 - x_6 - x_5 - x_4 - x_3 - x_2 - x_1 + x_25 - ~r_99
 = -112903.225806452
 r_100: - x_16 - x_15 - x_14 - x_13 - x_12 - x_11 - x_10 - x_9 + x_26
 - ~r_100 = -225806.451612903
 r_101: - x_24 - x_23 - x_22 - x_21 - x_20 - x_19 - x_18 - x_17 + x_109
 + x_102 + x_100 + x_97 + x_94 + x_89 + x_86 + x_81 + x_74 + x_67 + x_61
 + x_56 + x_52 + x_48 + x_44 + x_16 + x_8 - ~r_101 = -5480000

Bounds
 0 <= ~r_1 <= 58834.6848
 0 <= ~r_2 <= 35769.6
 0 <= ~r_3 <= 141635.52
 0 <= ~r_4 <= 20654.0928
 0 <= ~r_5 <= 13819.5072
 0 <= ~r_6 <= 26877.9168
 0 <= ~r_7 <= 43910.8128
 0 <= ~r_8 <= 198364.896
 0 <= ~r_9 <= 17425.8432
 0 <= ~r_10 <= 23963.2992
 0 <= ~r_11 <= 66746.592
 0 <= ~r_12 <= 5963.99328
 0 <= ~r_13 <= 9466.6752
 0 <= ~r_14 <= 275.92272
 0 <= ~r_15 <= 33.4451808
 0 <= ~r_36 <= -5.35731688141823e-06
 0 <= ~r_37 <= -1.06402024626732e-05
 0 <= ~r_38 <= 11682.7188626026
 0 <= ~r_67 <= 13200000
 0 <= ~r_98 <= 13200000
 0 <= ~r_99 <= 112903.225806452
 0 <= ~r_100 <= 225806.451612903
 0 <= ~r_101 <= 5480000

End
